p cnf 40 22
e 40 0
e 20 0
e 39 0
e 19 0
e 38 0
e 18 0
e 37 0
e 17 0
e 36 0
e 16 0
e 35 0
e 15 0
e 34 0
a 14 0
a 33 0
a 13 0
a 32 0
a 12 0
a 31 0
a 11 0
a 30 0
a 10 0
a 29 0
a 9 0
a 28 0
a 8 0
e 27 0
e 7 0
e 26 0
e 6 0
e 25 0
e 5 0
e 24 0
e 4 0
e 23 0
e 3 0
e 22 0
e 2 0
e 21 0
e 1 0
-20 0
20 39 -19 -38 -18 0
19 38 -18 -37 -17 0
18 37 -17 -36 -16 0
17 36 -16 -35 -15 0
16 35 -15 -34 -14 0
15 34 -14 -33 -13 0
14 33 -13 -32 -12 0
13 32 -12 -31 -11 0
12 31 -11 -30 -10 0
11 30 -10 -29 -9 0
10 29 -9 -28 -8 0
9 28 -8 -27 -7 0
8 27 -7 -26 -6 0
7 26 -6 -25 -5 0
6 25 -5 -24 -4 0
5 24 -4 -23 -3 0
4 23 -3 -22 -2 0
3 22 -2 -21 -1 0
2 1 0
2 -1 0
-2 1 0
